c Generated map
c Size: 15 * 15, weights in range: 1 to 10, walls: True, with ratio 0.1
c dim 3 of 4
c
p sp 225 348
c graph contains 225 nodes and 348 arcs
c
a 1 16 6
a 16 1 6
a 1 2 10
a 2 1 10
a 2 17 5
a 17 2 5
a 4 19 9
a 19 4 9
a 4 5 5
a 5 4 5
a 5 20 2
a 20 5 2
a 5 6 8
a 6 5 8
a 6 21 6
a 21 6 6
a 6 7 9
a 7 6 9
a 7 22 5
a 22 7 5
a 7 8 8
a 8 7 8
a 8 23 9
a 23 8 9
a 8 9 1
a 9 8 1
a 9 24 2
a 24 9 2
a 9 10 10
a 10 9 10
a 10 25 2
a 25 10 2
a 10 11 2
a 11 10 2
a 11 26 1
a 26 11 1
a 11 12 7
a 12 11 7
a 12 27 5
a 27 12 5
a 12 13 9
a 13 12 9
a 13 28 8
a 28 13 8
a 13 14 2
a 14 13 2
a 14 29 10
a 29 14 10
a 14 15 6
a 15 14 6
a 15 30 1
a 30 15 1
a 16 17 8
a 17 16 8
a 17 32 4
a 32 17 4
a 17 18 5
a 18 17 5
a 18 33 10
a 33 18 10
a 18 19 3
a 19 18 3
a 19 34 8
a 34 19 8
a 19 20 1
a 20 19 1
a 20 35 6
a 35 20 6
a 20 21 8
a 21 20 8
a 21 22 2
a 22 21 2
a 22 23 2
a 23 22 2
a 23 38 7
a 38 23 7
a 23 24 1
a 24 23 1
a 24 39 6
a 39 24 6
a 24 25 9
a 25 24 9
a 25 40 10
a 40 25 10
a 25 26 5
a 26 25 5
a 26 41 1
a 41 26 1
a 26 27 10
a 27 26 10
a 27 42 6
a 42 27 6
a 27 28 9
a 28 27 9
a 28 43 10
a 43 28 10
a 28 29 2
a 29 28 2
a 29 44 5
a 44 29 5
a 29 30 10
a 30 29 10
a 30 45 1
a 45 30 1
a 32 47 7
a 47 32 7
a 32 33 5
a 33 32 5
a 33 48 6
a 48 33 6
a 33 34 8
a 34 33 8
a 34 49 8
a 49 34 8
a 34 35 2
a 35 34 2
a 35 50 7
a 50 35 7
a 38 53 4
a 53 38 4
a 38 39 4
a 39 38 4
a 39 54 8
a 54 39 8
a 39 40 1
a 40 39 1
a 40 41 9
a 41 40 9
a 41 56 2
a 56 41 2
a 41 42 6
a 42 41 6
a 42 57 5
a 57 42 5
a 42 43 1
a 43 42 1
a 43 58 9
a 58 43 9
a 43 44 6
a 44 43 6
a 44 59 3
a 59 44 3
a 44 45 9
a 45 44 9
a 45 60 5
a 60 45 5
a 46 61 4
a 61 46 4
a 46 47 1
a 47 46 1
a 47 62 2
a 62 47 2
a 47 48 2
a 48 47 2
a 48 63 4
a 63 48 4
a 48 49 4
a 49 48 4
a 49 64 2
a 64 49 2
a 49 50 2
a 50 49 2
a 50 65 9
a 65 50 9
a 50 51 7
a 51 50 7
a 51 66 2
a 66 51 2
a 51 52 3
a 52 51 3
a 52 67 1
a 67 52 1
a 52 53 9
a 53 52 9
a 53 68 10
a 68 53 10
a 53 54 5
a 54 53 5
a 54 69 8
a 69 54 8
a 56 71 4
a 71 56 4
a 56 57 1
a 57 56 1
a 57 72 4
a 72 57 4
a 57 58 3
a 58 57 3
a 58 73 5
a 73 58 5
a 58 59 5
a 59 58 5
a 59 74 4
a 74 59 4
a 59 60 4
a 60 59 4
a 60 75 4
a 75 60 4
a 61 76 4
a 76 61 4
a 61 62 1
a 62 61 1
a 62 77 2
a 77 62 2
a 62 63 6
a 63 62 6
a 63 78 3
a 78 63 3
a 63 64 8
a 64 63 8
a 64 79 4
a 79 64 4
a 64 65 10
a 65 64 10
a 65 80 4
a 80 65 4
a 65 66 3
a 66 65 3
a 66 81 6
a 81 66 6
a 66 67 3
a 67 66 3
a 67 82 8
a 82 67 8
a 67 68 4
a 68 67 4
a 68 83 4
a 83 68 4
a 68 69 5
a 69 68 5
a 69 84 5
a 84 69 5
a 69 70 7
a 70 69 7
a 70 85 2
a 85 70 2
a 70 71 3
a 71 70 3
a 71 86 3
a 86 71 3
a 71 72 1
a 72 71 1
a 72 87 1
a 87 72 1
a 72 73 2
a 73 72 2
a 73 88 10
a 88 73 10
a 73 74 5
a 74 73 5
a 74 89 2
a 89 74 2
a 74 75 3
a 75 74 3
a 75 90 8
a 90 75 8
a 76 91 6
a 91 76 6
a 76 77 5
a 77 76 5
a 77 92 1
a 92 77 1
a 77 78 7
a 78 77 7
a 78 93 1
a 93 78 1
a 78 79 10
a 79 78 10
a 79 94 7
a 94 79 7
a 79 80 9
a 80 79 9
a 80 95 7
a 95 80 7
a 80 81 6
a 81 80 6
a 81 96 4
a 96 81 4
a 81 82 8
a 82 81 8
a 82 97 8
a 97 82 8
a 82 83 2
a 83 82 2
a 83 98 1
a 98 83 1
a 83 84 8
a 84 83 8
a 84 99 4
a 99 84 4
a 84 85 2
a 85 84 2
a 85 100 9
a 100 85 9
a 85 86 9
a 86 85 9
a 86 101 10
a 101 86 10
a 86 87 1
a 87 86 1
a 87 102 3
a 102 87 3
a 87 88 8
a 88 87 8
a 88 103 1
a 103 88 1
a 88 89 3
a 89 88 3
a 89 90 1
a 90 89 1
a 90 105 10
a 105 90 10
a 91 92 1
a 92 91 1
a 92 107 2
a 107 92 2
a 92 93 9
a 93 92 9
a 93 94 4
a 94 93 4
a 94 95 9
a 95 94 9
a 95 96 8
a 96 95 8
a 96 111 8
a 111 96 8
a 96 97 4
a 97 96 4
a 97 112 8
a 112 97 8
a 97 98 6
a 98 97 6
a 98 113 9
a 113 98 9
a 98 99 9
a 99 98 9
a 99 100 3
a 100 99 3
a 100 115 6
a 115 100 6
a 100 101 6
a 101 100 6
a 101 116 8
a 116 101 8
a 101 102 4
a 102 101 4
a 102 117 6
a 117 102 6
a 102 103 4
a 103 102 4
a 103 118 8
a 118 103 8
a 105 120 8
a 120 105 8
a 107 122 7
a 122 107 7
a 111 126 1
a 126 111 1
a 111 112 10
a 112 111 10
a 112 127 7
a 127 112 7
a 112 113 8
a 113 112 8
a 113 128 2
a 128 113 2
a 115 130 4
a 130 115 4
a 115 116 3
a 116 115 3
a 116 131 10
a 131 116 10
a 116 117 6
a 117 116 6
a 117 132 2
a 132 117 2
a 117 118 4
a 118 117 4
a 118 133 8
a 133 118 8
a 118 119 4
a 119 118 4
a 119 134 10
a 134 119 10
a 119 120 5
a 120 119 5
a 120 135 2
a 135 120 2
a 121 136 7
a 136 121 7
a 121 122 8
a 122 121 8
a 122 137 3
a 137 122 3
a 124 139 7
a 139 124 7
a 124 125 1
a 125 124 1
a 125 140 8
a 140 125 8
a 125 126 9
a 126 125 9
a 126 141 1
a 141 126 1
a 126 127 8
a 127 126 8
a 127 142 1
a 142 127 1
a 127 128 8
a 128 127 8
a 128 143 7
a 143 128 7
a 128 129 3
a 129 128 3
a 129 144 1
a 144 129 1
a 129 130 5
a 130 129 5
a 130 145 3
a 145 130 3
a 130 131 5
a 131 130 5
a 131 146 7
a 146 131 7
a 131 132 5
a 132 131 5
a 132 147 10
a 147 132 10
a 132 133 5
a 133 132 5
a 133 148 9
a 148 133 9
a 133 134 9
a 134 133 9
a 134 149 6
a 149 134 6
a 134 135 10
a 135 134 10
a 135 150 9
a 150 135 9
a 136 151 2
a 151 136 2
a 136 137 1
a 137 136 1
a 137 152 9
a 152 137 9
a 137 138 6
a 138 137 6
a 138 153 4
a 153 138 4
a 138 139 7
a 139 138 7
a 139 154 6
a 154 139 6
a 139 140 9
a 140 139 9
a 140 155 3
a 155 140 3
a 140 141 10
a 141 140 10
a 141 142 2
a 142 141 2
a 142 157 6
a 157 142 6
a 142 143 8
a 143 142 8
a 143 158 1
a 158 143 1
a 143 144 1
a 144 143 1
a 144 159 9
a 159 144 9
a 144 145 9
a 145 144 9
a 145 160 7
a 160 145 7
a 145 146 1
a 146 145 1
a 146 161 4
a 161 146 4
a 146 147 10
a 147 146 10
a 147 162 4
a 162 147 4
a 147 148 6
a 148 147 6
a 148 163 9
a 163 148 9
a 148 149 9
a 149 148 9
a 149 164 6
a 164 149 6
a 149 150 8
a 150 149 8
a 151 166 5
a 166 151 5
a 151 152 8
a 152 151 8
a 152 167 5
a 167 152 5
a 152 153 7
a 153 152 7
a 153 168 4
a 168 153 4
a 153 154 7
a 154 153 7
a 154 169 4
a 169 154 4
a 154 155 8
a 155 154 8
a 155 170 10
a 170 155 10
a 157 172 3
a 172 157 3
a 157 158 6
a 158 157 6
a 158 173 6
a 173 158 6
a 158 159 10
a 159 158 10
a 159 160 9
a 160 159 9
a 160 175 7
a 175 160 7
a 160 161 7
a 161 160 7
a 161 176 7
a 176 161 7
a 161 162 3
a 162 161 3
a 162 177 9
a 177 162 9
a 162 163 3
a 163 162 3
a 163 178 6
a 178 163 6
a 163 164 4
a 164 163 4
a 164 179 9
a 179 164 9
a 166 181 7
a 181 166 7
a 166 167 9
a 167 166 9
a 167 182 8
a 182 167 8
a 167 168 2
a 168 167 2
a 168 183 3
a 183 168 3
a 168 169 9
a 169 168 9
a 169 184 1
a 184 169 1
a 169 170 4
a 170 169 4
a 170 185 3
a 185 170 3
a 170 171 10
a 171 170 10
a 171 186 2
a 186 171 2
a 171 172 7
a 172 171 7
a 172 187 6
a 187 172 6
a 172 173 1
a 173 172 1
a 173 188 9
a 188 173 9
a 175 176 4
a 176 175 4
a 176 177 8
a 177 176 8
a 177 178 1
a 178 177 1
a 178 193 9
a 193 178 9
a 178 179 4
a 179 178 4
a 179 194 1
a 194 179 1
a 181 196 10
a 196 181 10
a 181 182 1
a 182 181 1
a 182 197 3
a 197 182 3
a 182 183 4
a 183 182 4
a 183 198 4
a 198 183 4
a 183 184 2
a 184 183 2
a 184 199 2
a 199 184 2
a 184 185 2
a 185 184 2
a 185 200 9
a 200 185 9
a 185 186 1
a 186 185 1
a 186 201 4
a 201 186 4
a 186 187 2
a 187 186 2
a 187 202 6
a 202 187 6
a 187 188 5
a 188 187 5
a 188 203 4
a 203 188 4
a 188 189 9
a 189 188 9
a 189 204 10
a 204 189 10
a 193 208 4
a 208 193 4
a 193 194 8
a 194 193 8
a 194 209 7
a 209 194 7
a 194 195 7
a 195 194 7
a 195 210 7
a 210 195 7
a 196 197 10
a 197 196 10
a 197 212 5
a 212 197 5
a 197 198 2
a 198 197 2
a 198 213 2
a 213 198 2
a 198 199 4
a 199 198 4
a 199 214 8
a 214 199 8
a 199 200 6
a 200 199 6
a 200 215 5
a 215 200 5
a 200 201 5
a 201 200 5
a 201 216 8
a 216 201 8
a 201 202 5
a 202 201 5
a 202 217 10
a 217 202 10
a 202 203 2
a 203 202 2
a 203 218 3
a 218 203 3
a 203 204 4
a 204 203 4
a 204 219 3
a 219 204 3
a 204 205 3
a 205 204 3
a 207 222 10
a 222 207 10
a 207 208 6
a 208 207 6
a 208 223 5
a 223 208 5
a 208 209 9
a 209 208 9
a 209 224 9
a 224 209 9
a 209 210 4
a 210 209 4
a 210 225 10
a 225 210 10
a 212 213 1
a 213 212 1
a 213 214 2
a 214 213 2
a 214 215 10
a 215 214 10
a 215 216 3
a 216 215 3
a 216 217 4
a 217 216 4
a 217 218 7
a 218 217 7
a 218 219 4
a 219 218 4
a 221 222 2
a 222 221 2
a 222 223 8
a 223 222 8
a 223 224 8
a 224 223 8
a 224 225 8
a 225 224 8
